unsat
(:SPACER-cluster-out-of-gas           371
 :SPACER-conj                         172
 :SPACER-expand-pob-undef             303
 :SPACER-inductive-gen                549
 :SPACER-inductive-gen-weaken-fail    576
 :SPACER-inductive-gen-weaken-success 31
 :SPACER-inductive-level              76
 :SPACER-max-depth                    76
 :SPACER-max-query-lvl                76
 :SPACER-non-local-gen                589
 :SPACER-num-active-lemmas            119
 :SPACER-num-ctp-blocked              905
 :SPACER-num-invariants               78
 :SPACER-num-is_invariant             8153
 :SPACER-num-lemma-jumped             359
 :SPACER-num-lemmas                   981
 :SPACER-num-pobs                     667
 :SPACER-num-propagations             6193
 :SPACER-num-queries                  691
 :SPACER-num-reach-queries            126
 :SPACER-num-reuse-reach-facts        125
 :SPACER-subsume-failed               52
 :SPACER-subsume-pob                  84
 :SPACER-subsume-success              77
 :added-eqs                           440272
 :arith-assert-diseq                  201704
 :arith-assert-lower                  779166
 :arith-assert-upper                  1771746
 :arith-bound-prop                    33272
 :arith-branch-var                    6682
 :arith-conflicts                     588
 :arith-eq-adapter                    63682
 :arith-fixed-eqs                     77198
 :arith-gcd-conflicts                 76
 :arith-gcd-tests                     156166
 :arith-gomory-cuts                   6568
 :arith-ineq-splits                   6682
 :arith-num-rows                      118
 :arith-offset-eqs                    13306
 :arith-patches                       14126
 :arith-patches_succ                  844
 :arith-pivots                        38946
 :arith-row-summations                545110
 :arith-tableau-max-columns           248
 :arith-tableau-max-rows              118
 :conflicts                           23866
 :decisions                           1209162
 :del-clause                          188768
 :final-checks                        18262
 :iuc_solver.num_proxies              650
 :max-memory                          170.98
 :memory                              162.01
 :minimized-lits                      1672
 :mk-bool-var                         213392
 :mk-clause                           225612
 :num-allocs                          186760316802.00
 :num-checks                          23828
 :pool_solver.checks                  11914
 :pool_solver.checks.sat              1210
 :pool_solver.checks.undef            1246
 :propagations                        6993608
 :rlimit-count                        28952165
 :time                                24.40
 :time.iuc_solver.get_iuc             1.23
 :time.iuc_solver.get_iuc.hyp_reduce1 0.37
 :time.iuc_solver.get_iuc.hyp_reduce2 0.62
 :time.iuc_solver.get_iuc.learn_core  0.17
 :time.pool_solver.proof              0.25
 :time.pool_solver.smt.total          17.12
 :time.pool_solver.smt.total.sat      4.81
 :time.pool_solver.smt.total.undef    2.99
 :time.spacer.ctp                     0.28
 :time.spacer.init_rules              0.00
 :time.spacer.mbp                     0.38
 :time.spacer.solve                   24.33
 :time.spacer.solve.propagate         11.51
 :time.spacer.solve.reach             12.82
 :time.spacer.solve.reach.children    1.05
 :time.spacer.solve.reach.cluster     1.23
 :time.spacer.solve.reach.gen.global  1.55
 :time.spacer.solve.reach.gen.ind     0.63
 :time.spacer.solve.reach.is-reach    0.19)
(:max-memory   170.98
 :memory       162.01
 :num-allocs   186760316802.00
 :rlimit-count 28952165
 :time         24.40
 :total-time   24.41)
